webassembly/ejemplos_dzn/13/folder13_json_7.dzn
TERM = { '.', 's(2)', 's(5)', 's(4)', 'local_0', 'local_1', 's(1)', 's(0)', 's(3)', 'in_0'};
null = '.';
s = 13;
n = 12;
ndeps = 1;
max_registers_sz = 5;
NR = 2;
registers = [|'local_0', 'in_0', |'local_1', 'in_0'|];
dependencies = [|'i32.load8_u_5', 'call[function_index(0)]_6'|];
GET_ENUM = { GET1, GET2, GET3, GET4, GET5, GET6, GET7};
SET_ENUM = { SET1, SET2, SET3, SET4, SET5, SET6, SET7};
TEE_ENUM = { TEE1, TEE2, TEE3, TEE4, TEE5, TEE6, TEE7};
N = 4;
OP = { 'i32.const_0', 'i32.sub_0', 'call[function_index(0)]_6', 'i32.load8_u_5' };
in_ops = [0, 2, 1, 1 ];
out_ops = [1, 1, 3, 1 ];
in1 = ['.', 's(5)', 's(0)', 'in_0' ];
in2 = ['.', 'in_0', '.', '.' ];
in3 = ['.', '.', '.', '.' ];
out1 = ['s(5)', 's(4)', 's(3)', 's(0)' ];
out2 = ['.', '.', 's(2)', '.' ];
out3 = ['.', '.', 's(1)', '.' ];
comm = [false, false, false, false ];
gas = [1, 1, 1, 1 ];
sz = [1, 1, 1, 1 ];
stor = [false, false, true, false ];
lb = [ 1, 1, 1, 1 ];
ub = [ 13, 13, 13, 13 ];
startstack = [ 'in_0', null, null, null, null, null, null, null, null, null, null, null ];
endstack = [ 'in_0', 's(4)', 's(3)', 's(2)', 's(1)', 'in_0', 'in_0', null, null, null, null, null ];
