webassembly/ejemplos_results/13/folder13_json_7.txt
=====UNSATISFIABLE=====
% time elapsed: 0.46 s
